Al Ca
 1.0000000000000000
     3.7182805100000000    0.0000000000000000    0.0000000000000000
     0.0000000000000000    3.7182805100000000    0.0000000000000000
     0.0000000000000000    0.0000000000000000    3.7182805100000000
 Al  Ca 
   1   1
Direct
  0.0000000000000000  0.0000000000000000  0.0000000000000000
  0.5000000000000000  0.5000000000000000  0.5000000000000000
