Al
 1.0000000000000000
     2.4865945400000000   -1.4883462300000001    0.5695206900000001
     0.0186013500000000    2.9144129799999998    0.0321271500000000
     0.7293876400000000    0.0668720700000000    2.5246828899999998
 Al 
   1
Direct
  0.0000002800000000  0.0000002200000000  0.8285509300000001
