Al Ca Mg
 1.0000000000000000
     4.9337467000000004   -2.8484999800000002    0.0000000000000000
     0.0000000000000000    5.6969999700000002    0.0000000000000000
     0.0000000000000000    0.0000000000000000    6.3329259899999997
 Al  Ca  Mg 
   1   3   1
Direct
  0.3333333300000000  0.6666666700000000  0.0000000000000000
  0.6666666700000000  0.3333333300000000  0.0000000000000000
  0.3333333300000000  0.6666666700000000  0.4999999999999999
  0.0000000000000000  0.0000000000000000  0.0000000000000000
  0.0000000000000000  0.0000000000000000  0.4999999999999999
