Al Ca Mg
 1.0000000000000000
     4.3414035699999998   -2.5065105200000000    0.0000000000000000
     0.0000000000000000    5.0130210399999999    0.0000000000000000
     0.0000000000000000    0.0000000000000000    3.5028622800000000
 Al  Ca  Mg 
   1   1   1
Direct
  0.6666666700000000  0.3333333300000000  0.0000000000000000
  0.3333333300000000  0.6666666699999999  0.5000000000000000
  0.0000000000000000  0.0000000000000000  0.0000000000000000
