Ca
 1.0000000000000000
     2.9613235800000002    1.7664678199999999   -1.9055728599999999
    -0.6201265500000001    3.1719924200000000   -2.0497427199999998
     0.3584741900000000   -2.8755318900000000    5.8971056199999996
 Ca 
   1
Direct
  0.6932162600000000  0.9272336500000000  0.7145535899999998
