Ca Mg
 1.0000000000000000
     3.9594019800000000    0.0000000000000000    0.0000000000000000
     0.0000000000000000    3.9594019800000000    0.0000000000000000
     0.0000000000000000    0.0000000000000000    3.9594019800000000
 Ca  Mg 
   1   1
Direct
  0.4999999999999999  0.4999999999999999  0.4999999999999999
  0.0000000000000000  0.0000000000000000  0.0000000000000000
