Al Ca Mg
 1.0000000000000000
     4.7953509099999998   -2.6675480600000001    0.6110086100000000
     0.0875103500000000    5.6041261499999999    0.0216366600000000
     0.4806017900000000   -0.2578136600000000    6.1305315299999998
 Al  Ca  Mg 
   3   1   1
Direct
  0.4999999700000000  0.9999993899999999  0.5000001299999999
  0.0000002000000000  0.5000001900000000  0.4999995099999999
  0.5000006599999999  0.4999999099999999  0.5000003100000000
  0.9999999899999998  0.9999999300000000  0.9999997700000000
  0.0000002700000000  0.0000004900000000  0.4999996700000000
