Al Mg
 1.0000000000000000
     3.0109896400000000   -0.0000000200000000   -0.0000000400000000
    -0.0000000200000000    3.0109895500000001    0.0000000900000000
    -0.0000000700000000    0.0000001600000000    4.2602045799999999
 Al  Mg 
   1   1
Direct
  0.0000000300000000  0.9999999700000000  0.0000000000000000
  0.4999999700000000  0.5000000299999999  0.4999999999999999
