Al Ca Mg
 1.0000000000000000
     5.2586612400000003    0.0000000000000000    0.0000000000000000
     0.0000000000000000    5.2586612400000003    0.0000000000000000
     0.0000000000000000    0.0000000000000000    5.2586612400000003
 Al  Ca  Mg 
   1   1   3
Direct
  0.5000000000000000  0.5000000000000000  0.5000000000000000
  0.0000000000000000  0.0000000000000000  0.0000000000000000
  0.0000000000000000  0.5000000000000000  0.5000000000000000
  0.5000000000000000  0.0000000000000000  0.5000000000000000
  0.5000000000000000  0.5000000000000000  0.0000000000000000
