Mg
 1.0000000000000000
     3.2626602400000002   -0.3006822300000000    0.7683919400000000
     1.8334440299999999    2.6670102000000000    0.6929731300000000
     0.9642456700000001    0.5834480200000000    2.9206511800000001
 Mg 
   1
Direct
  0.3519039200000000  0.0726388900000000  0.5607206300000001
